4 13 50 1 2
0 200
 1 40.00 50.00 0.00 0.00 0.00 0 0 0 240
 2 25.00 85.00 10.00 20.00 20.00 1 1 1 71 191
 3 22.00 75.00 10.00 30.00 20.00 1 1 1 30 150
 4 22.00 85.00 10.00 10.00 30.00 1 1 1 64 184
 5 20.00 80.00 10.00 40.00 10.00 1 1 1 151 161
 6 20.00 85.00 10.00 20.00 20.00 1 1 1 40 160
 7 18.00 75.00 10.00 20.00 30.00 1 1 1 96 123
 8 15.00 75.00 10.00 20.00 30.00 1 1 1 35 155
 9 15.00 80.00 10.00 10.00 30.00 1 1 1 101 111
 10 10.00 35.00 10.00 20.00 10.00 1 1 1 101 111
 11 10.00 40.00 10.00 30.00 20.00 1 1 1 123 144
 12 8.00 40.00 10.00 40.00 40.00 1 1 1 69 79
 13 8.00 45.00 10.00 20.00 10.00 1 1 1 32 152
 14 5.00 35.00 10.00 10.00 40.00 1 1 1 152 162
 15 5.00 45.00 10.00 10.00 20.00 1 1 1 35 117
 16 2.00 40.00 10.00 20.00 30.00 1 1 1 68 78
 17 0.00 40.00 10.00 20.00 40.00 1 1 1 59 114
 18 0.00 45.00 10.00 20.00 10.00 1 1 1 147 180
 19 44.00 5.00 10.00 20.00 20.00 1 1 1 79 124
 20 42.00 10.00 10.00 40.00 10.00 1 1 1 58 115
 21 42.00 15.00 10.00 10.00 20.00 1 1 1 111 162
 22 40.00 5.00 10.00 10.00 20.00 1 1 1 45 165
 23 40.00 15.00 10.00 40.00 20.00 1 1 1 94 119
 24 38.00 5.00 10.00 30.00 40.00 1 1 1 75 85
 25 38.00 15.00 10.00 10.00 30.00 1 1 1 128 194
 26 35.00 5.00 10.00 20.00 10.00 1 1 1 171 181
 27 95.00 30.00 10.00 30.00 10.00 1 1 1 58 171
 28 95.00 35.00 10.00 20.00 20.00 1 1 1 60 93
 29 92.00 30.00 10.00 10.00 10.00 1 1 1 55 120
 30 90.00 35.00 10.00 10.00 20.00 1 1 1 52 112
 31 88.00 30.00 10.00 10.00 10.00 1 1 1 75 102
 32 88.00 35.00 10.00 20.00 10.00 1 1 1 50 170
 33 87.00 30.00 10.00 10.00 10.00 1 1 1 116 175
 34 85.00 25.00 10.00 10.00 10.00 1 1 1 51 85
 35 85.00 35.00 10.00 30.00 20.00 1 1 1 62 182
 36 67.00 85.00 10.00 20.00 20.00 1 1 1 138 169
 37 65.00 85.00 10.00 40.00 10.00 1 1 1 43 78
 38 65.00 82.00 10.00 10.00 10.00 1 1 1 69 189
 39 62.00 80.00 10.00 30.00 30.00 1 1 1 85 95
 40 60.00 80.00 10.00 10.00 10.00 1 1 1 36 74
 41 60.00 85.00 10.00 30.00 40.00 1 1 1 87 112
 42 58.00 75.00 10.00 20.00 20.00 1 1 1 92 121
 43 55.00 80.00 10.00 10.00 10.00 1 1 1 33 66
 44 55.00 85.00 10.00 20.00 10.00 1 1 1 117 168
 45 55.00 82.00 10.00 10.00 10.00 1 1 1 74 84
 46 20.00 82.00 10.00 10.00 20.00 1 1 1 37 72
 47 18.00 80.00 10.00 10.00 30.00 1 1 1 98 157
 48 2.00 45.00 10.00 10.00 20.00 1 1 1 38 109
 49 42.00 5.00 10.00 10.00 10.00 1 1 1 64 184
 50 42.00 12.00 10.00 10.00 10.00 1 1 1 109 128
 51 72.00 35.00 10.00 30.00 10.00 1 1 1 71 191
